40
75
60	3
59	2
58	2
57	5
56	1
55	1
54	1
53	3
52	6
51	2
50	3
47	1
46	3
45	5
43	2
42	1
41	3
40	2
39	3
38	1
36	1
35	4
33	3
32	1
31	3
30	2
29	4
28	2
27	4
26	3
25	1
24	3
23	3
22	2
20	2
19	1
18	2
17	1
16	4
15	4
